20
587 233 220
91 50 32
118 66 40
75 69 32
81 73 32
97 69 33
97 31 27
57 54 29
77 71 62
116 84 27
85 30 29
112 51 41
87 81 23
49 44 26
63 59 38
82 44 33
63 61 44
69 53 52
104 78 25
119 65 37
76 76 68
thpack7_69